Maximize
 obj: 0 X1
Subject To
 c1:
  + 8350 X1 + 7040 X2 + 9280 X3 + 9180 X4 + 8290 X5 + 6330 X6 + 7440 X7 + 1320 X8
  + 3710 X9 + 5880 X10
  <= 33410
 obj1:
  + 737 X1 + 659 X2 + 218 X3 + 790 X4 + 542 X5 + 850 X6 + 968 X7 + 527 X8
  + 466 X9 + 91 X10
  >= 1
 obj2:
  + 823 X1 + 38 X2 + 83 X3 + 125 X4 + 706 X5 + 826 X6 + 304 X7 + 739 X8
  + 845 X9 + 519 X10
  >= 2
 obj3:
  + 959 X1 + 830 X2 + 699 X3 + 337 X4 + 604 X5 + 574 X6 + 303 X7 + 25 X8
  + 251 X9 + 155 X10
  >= 3
 obj4:
  + 357 X1 + 988 X2 + 814 X3 + 575 X4 + 777 X5 + 355 X6 + 425 X7 + 744 X8
  + 882 X9 + 890 X10
  >= 4
Binary
 X1
 X2
 X3
 X4
 X5
 X6
 X7
 X8
 X9
 X10
End
